data/solutions/recovery/degenerate/intermediate/binding/degenerate_intermediate_instance38/9.sol
Elapsed time: 0.33
Upper bound: 298711.0
Planning weighted value: 15062293017.0
C[0]=298711.0
C[1]=298625.0
C[2]=298187.0
C[3]=297335.0
C[4]=296699.0
C[5]=296361.0
C[6]=295246.0
C[7]=291112.0
C[8]=285856.0
C[9]=283806.0
C[10]=281923.0
C[11]=281177.0
C[12]=279380.0
C[13]=0.0
C[14]=0.0
C[15]=0.0
y[0]=8
y[1]=4
y[2]=5
y[3]=2
y[4]=9
y[5]=6
y[6]=2
y[7]=8
y[8]=7
y[9]=11
y[10]=0
y[11]=11
y[12]=7
y[13]=10
y[14]=12
y[15]=10
y[16]=4
y[17]=6
y[18]=10
y[19]=3
y[20]=8
y[21]=4
y[22]=8
y[23]=5
y[24]=9
y[25]=1
y[26]=3
y[27]=12
y[28]=9
y[29]=5
y[30]=5
y[31]=6
y[32]=9
y[33]=9
y[34]=7
y[35]=5
y[36]=6
y[37]=10
y[38]=1
y[39]=0
y[40]=0
y[41]=12
y[42]=7
y[43]=3
y[44]=4
y[45]=8
y[46]=2
y[47]=4
y[48]=2
y[49]=3
y[50]=7
y[51]=2
y[52]=6
y[53]=11
y[54]=11
y[55]=7
y[56]=10
y[57]=1
y[58]=11
y[59]=9
y[60]=12
y[61]=3
y[62]=0
y[63]=12
y[64]=0
y[65]=1
